NAME          DCAP_3_4_2_500_SS207
ROWS
 N  OBJ
 L  CON1
 L  CON2
 L  CON3
 L  CON4
 L  CON5
 L  CON6
 L  CON7
 L  CON8
 L  CON9
 L  CON10
 L  CON11
 L  CON12
 E  CON13
 E  CON14
 E  CON15
 E  CON16
 E  CON17
 E  CON18
 E  CON19
 E  CON20
COLUMNS
    x[1,1]    OBJ       6.180167      CON1      1.000000    
    x[1,1]    CON7      -1.000000     CON8      -1.000000   
    x[1,2]    OBJ       5.039546      CON2      1.000000    
    x[1,2]    CON8      -1.000000   
    x[2,1]    OBJ       6.732585      CON3      1.000000    
    x[2,1]    CON9      -1.000000     CON10     -1.000000   
    x[2,2]    OBJ       7.443064      CON4      1.000000    
    x[2,2]    CON10     -1.000000   
    x[3,1]    OBJ       6.563535      CON5      1.000000    
    x[3,1]    CON11     -1.000000     CON12     -1.000000   
    x[3,2]    OBJ       6.054841      CON6      1.000000    
    x[3,2]    CON12     -1.000000   
    MARKER    'MARKER'                'INTORG'
    u[1,1]    OBJ       48.076654     CON1      -1.000000   
    u[1,2]    OBJ       49.466655     CON2      -1.000000   
    u[2,1]    OBJ       49.996186     CON3      -1.000000   
    u[2,2]    OBJ       32.230043     CON4      -1.000000   
    u[3,1]    OBJ       20.066487     CON5      -1.000000   
    u[3,2]    OBJ       27.484319     CON6      -1.000000   
    y[1,1,1]  OBJ       9.885203      CON7      1.071504    
    y[1,1,1]  CON13     1.000000    
    y[1,1,2]  OBJ       7.841842      CON8      1.487130    
    y[1,1,2]  CON14     1.000000    
    y[1,2,1]  OBJ       8.021007      CON7      0.811604    
    y[1,2,1]  CON15     1.000000    
    y[1,2,2]  OBJ       6.378389      CON8      1.030269    
    y[1,2,2]  CON16     1.000000    
    y[1,3,1]  OBJ       5.237737      CON7      1.021013    
    y[1,3,1]  CON17     1.000000    
    y[1,3,2]  OBJ       7.760014      CON8      0.919059    
    y[1,3,2]  CON18     1.000000    
    y[1,4,1]  OBJ       8.078790      CON7      1.172521    
    y[1,4,1]  CON19     1.000000    
    y[1,4,2]  OBJ       6.078019      CON8      0.954079    
    y[1,4,2]  CON20     1.000000    
    y[2,1,1]  OBJ       8.945481      CON9      1.071504    
    y[2,1,1]  CON13     1.000000    
    y[2,1,2]  OBJ       9.066804      CON10     1.487130    
    y[2,1,2]  CON14     1.000000    
    y[2,2,1]  OBJ       5.260308      CON9      0.811604    
    y[2,2,1]  CON15     1.000000    
    y[2,2,2]  OBJ       8.361622      CON10     1.030269    
    y[2,2,2]  CON16     1.000000    
    y[2,3,1]  OBJ       5.400677      CON9      1.021013    
    y[2,3,1]  CON17     1.000000    
    y[2,3,2]  OBJ       8.170748      CON10     0.919059    
    y[2,3,2]  CON18     1.000000    
    y[2,4,1]  OBJ       7.139635      CON9      1.172521    
    y[2,4,1]  CON19     1.000000    
    y[2,4,2]  OBJ       5.134695      CON10     0.954079    
    y[2,4,2]  CON20     1.000000    
    y[3,1,1]  OBJ       5.048454      CON11     1.071504    
    y[3,1,1]  CON13     1.000000    
    y[3,1,2]  OBJ       6.809339      CON12     1.487130    
    y[3,1,2]  CON14     1.000000    
    y[3,2,1]  OBJ       5.885709      CON11     0.811604    
    y[3,2,1]  CON15     1.000000    
    y[3,2,2]  OBJ       9.102301      CON12     1.030269    
    y[3,2,2]  CON16     1.000000    
    y[3,3,1]  OBJ       5.548635      CON11     1.021013    
    y[3,3,1]  CON17     1.000000    
    y[3,3,2]  OBJ       5.691020      CON12     0.919059    
    y[3,3,2]  CON18     1.000000    
    y[3,4,1]  OBJ       6.872101      CON11     1.172521    
    y[3,4,1]  CON19     1.000000    
    y[3,4,2]  OBJ       6.795908      CON12     0.954079    
    y[3,4,2]  CON20     1.000000    
    z[1,1]    OBJ       673.230154    CON13     1.000000    
    z[1,2]    OBJ       803.759502    CON14     1.000000    
    z[2,1]    OBJ       762.001090    CON15     1.000000    
    z[2,2]    OBJ       771.454322    CON16     1.000000    
    z[3,1]    OBJ       623.071763    CON17     1.000000    
    z[3,2]    OBJ       774.921669    CON18     1.000000    
    z[4,1]    OBJ       519.131915    CON19     1.000000    
    z[4,2]    OBJ       821.275291    CON20     1.000000    
    MARKER    'MARKER'                 'INTEND'
RHS
    RHS       CON1      -0.000000     CON2      -0.000000   
    RHS       CON3      -0.000000     CON4      -0.000000   
    RHS       CON5      -0.000000     CON6      -0.000000   
    RHS       CON7      -0.000000     CON8      -0.000000   
    RHS       CON9      -0.000000     CON10     -0.000000   
    RHS       CON11     -0.000000     CON12     -0.000000   
    RHS       CON13     1.000000      CON14     1.000000    
    RHS       CON15     1.000000      CON16     1.000000    
    RHS       CON17     1.000000      CON18     1.000000    
    RHS       CON19     1.000000      CON20     1.000000    
BOUNDS
 BV BOUND     u[1,1]  
 BV BOUND     u[1,2]  
 BV BOUND     u[2,1]  
 BV BOUND     u[2,2]  
 BV BOUND     u[3,1]  
 BV BOUND     u[3,2]  
 BV BOUND     y[1,1,1]
 BV BOUND     y[1,1,2]
 BV BOUND     y[1,2,1]
 BV BOUND     y[1,2,2]
 BV BOUND     y[1,3,1]
 BV BOUND     y[1,3,2]
 BV BOUND     y[1,4,1]
 BV BOUND     y[1,4,2]
 BV BOUND     y[2,1,1]
 BV BOUND     y[2,1,2]
 BV BOUND     y[2,2,1]
 BV BOUND     y[2,2,2]
 BV BOUND     y[2,3,1]
 BV BOUND     y[2,3,2]
 BV BOUND     y[2,4,1]
 BV BOUND     y[2,4,2]
 BV BOUND     y[3,1,1]
 BV BOUND     y[3,1,2]
 BV BOUND     y[3,2,1]
 BV BOUND     y[3,2,2]
 BV BOUND     y[3,3,1]
 BV BOUND     y[3,3,2]
 BV BOUND     y[3,4,1]
 BV BOUND     y[3,4,2]
 BV BOUND     z[1,1]  
 BV BOUND     z[1,2]  
 BV BOUND     z[2,1]  
 BV BOUND     z[2,2]  
 BV BOUND     z[3,1]  
 BV BOUND     z[3,2]  
 BV BOUND     z[4,1]  
 BV BOUND     z[4,2]  
ENDATA
